# Cell file generated by matador (Matthew Evans 2016)

%BLOCK LATTICE_CART
2.461496 -5.2e-05 0.0
-1.230794 2.131691 0.0
0.0 0.0 6.490317
%ENDBLOCK LATTICE_CART

%BLOCK POSITIONS_FRAC
C               0.000070        0.999934        0.502489
C               0.999933        0.000067        0.002488
C               0.666744        0.333254        0.502512
C               0.333256        0.666746        0.002511
%ENDBLOCK POSITIONS_FRAC

%block spectral_kpoint_path
0.0 0.0 0.0 !$\Gamma$
0.0 0.0 0.5 ! Z
BREAK
0.0 0.5 0.0 #    $Y$
0.5 0.0 0.0     %    X
%endblock spectral_kpoint_path

spectral_kpoint_path_spacing = 0.02

%block phonon_fine_kpoint_path
0.0 0.0 0.0 !$\Gamma$
0.0 0.0 0.5 ! Z
0.0 0.5 0.0 #    $Y$
0.5 0.0 0.0     %    X
%endblock phonon_fine_kpoint_path

phonon_fine_kpoint_path_spacing = 0.01
