%block species_pot
QC5
%endblock species_pot

%block lattice_abc
10 10 10
90 90 90
%endblock lattice_abc

%block positions_frac
H 0 0 0
C 0.5 0.5 0.5 spin=0.32675521
H 0.6 0.1 0.2
C 0.1 0.1 0.1 spin=-0.1234
H 1 1 1
H 0.9 0.9 0.9 spin=1
%endblock positions_frac
