%BLOCK LATTICE_CART
2.154433 0 0
0 2.154433 0
0 0 2.154433
%ENDBLOCK LATTICE_CART

%BLOCK POSITIONS_FRAC
%ENDBLOCK POSITIONS_FRAC

KPOINTS_MP_SPACING 0.07
 
SYMMETRY_GENERATE
SYMMETRY_TOL 0.001
SNAP_TO_SYMMETRY
 
%BLOCK SPECIES_POT
Li Li_00PBE.usp
As As_00PBE.usp
%ENDBLOCK SPECIES_POT
 
%BLOCK EXTERNAL_PRESSURE
0 0 0
0 0
0
%ENDBLOCK EXTERNAL_PRESSURE
