#
# CELL written by cell_write: Keith Refson, Oct 2006
#
%BLOCK lattice_cart
   ANG
       9.83262140721165       0.227665943523819       -1.79622591406382    
     -0.115688800302997        5.96357780025648       0.953712268882888    
      -2.46125230446662      -0.544838699304139        4.39895761828278    
%ENDBLOCK lattice_cart

%BLOCK positions_frac
   Li             0.252965959023284       0.737478405197007       0.492250465968290
   Li             0.747034040976716       0.262521594802993       0.507749534031710
   Li             0.250123136665993       0.736203051010821       0.995872318261225
   Li             0.749876863334007       0.263796948989179       0.004127681738775
   P              0.500000000000000       0.500000000000000       0.500000000000000
   P              0.000000000000000       0.500000000000000       0.500000000000000
   P              0.500000000000000       0.000000000000000       0.500000000000000
   P              0.500000000000000       0.500000000000000       0.000000000000000
   P              0.500000000000000       0.000000000000000       0.000000000000000
   P              0.000000000000000       0.500000000000000       0.000000000000000
   P              0.000000000000000       0.000000000000000       0.500000000000000
   P              0.000000000000000       0.000000000000000       0.000000000000000
   Zn             0.750244667465844       0.750764806620954       0.750161633216623
   Zn             0.249755332534156       0.249235193379046       0.249838366783377
   Zn             0.750088506347993       0.750798501448821       0.249749983369123
   Zn             0.249911493652008       0.249201498551179       0.750250016630877
%ENDBLOCK positions_frac

FIX_COM : true

%BLOCK species_gamma
   radsectesla
   Li         103977013.0    
%ENDBLOCK species_gamma

%BLOCK species_pot
   Li      Li_00PBE.usp
   P       P_00PBE.usp
   Zn      Zn_00PBE.usp
%ENDBLOCK species_pot

SYMMETRY_TOL :     0.001000

%BLOCK symmetry_ops
# Symm. op. 1       E
          1.000000000000000      -0.000000000000000       0.000000000000000
          0.000000000000000       1.000000000000000      -0.000000000000000
          0.000000000000000       0.000000000000000       1.000000000000000
          0.000000000000000       0.000000000000000       0.000000000000000
# Symm. op. 2       I
         -1.000000000000000       0.000000000000000      -0.000000000000000
          0.000000000000000      -1.000000000000000       0.000000000000000
          0.000000000000000       0.000000000000000      -1.000000000000000
          0.000000000000000      -0.000000000000000       0.000000000000000
%ENDBLOCK symmetry_ops

kpoint_mp_grid :    2   3   4

