# Cell file generated by matador (Matthew Evans 2016)

%BLOCK LATTICE_CART
4.961493221480665 2.864294652371838 0.0
-4.961493221480665 2.864294652371838 0.0
-1.0204592059123061e-07 0.0 10.127141
%ENDBLOCK LATTICE_CART

%BLOCK POSITIONS_FRAC
K               0.999976       -0.999976        0.249886 
K               0.666663       -0.666663        0.421643 
K               0.666663       -0.666663        0.078374 
K               1.333337       -0.333337        0.578357 
K               1.333337       -0.333337        0.921626 
K               1.000024       -0.000024        0.750114 
P               0.666700       -0.666700        0.750129 
P               1.333300       -0.333300        0.249871 
%ENDBLOCK POSITIONS_FRAC

%BLOCK EXTERNAL_PRESSURE
0.0 0.0 0.0
0.0 0.0
0.0
%ENDBLOCK EXTERNAL_PRESSURE

KPOINTS_MP_SPACING: 0.02

SPECTRAL_KPOINTS_MP_SPACING: 0.02
SYMMETRY_GENERATE
SNAP_TO_SYMMETRY
SYMMETRY_TOL: 1e-05

%BLOCK SPECIES_POT
P    P_OTF.usp
K    K_OTF.usp
%ENDBLOCK SPECIES_POT
