# Cell file generated by matador (Matthew Evans 2016)

%BLOCK LATTICE_CART
4.961493221480665 2.864294652371838 0.0
-4.961493221480665 2.864294652371838 0.0
-1.0204592059123061e-07 0.0 10.127141
%ENDBLOCK LATTICE_CART

%BLOCK POSITIONS_FRAC
K               0.999976       -0.999976        0.249886 
K               0.666663       -0.666663        0.421643 
K               0.666663       -0.666663        0.078374 
K               1.333337       -0.333337        0.578357 
K               1.333337       -0.333337        0.921626 
K               1.000024       -0.000024        0.750114 
P               0.666700       -0.666700        0.750129 
P               1.333300       -0.333300        0.249871 
%ENDBLOCK POSITIONS_FRAC

%BLOCK EXTERNAL_PRESSURE
0.0 0.0 0.0
0.0 0.0
0.0
%ENDBLOCK EXTERNAL_PRESSURE

KPOINTS_MP_SPACING: 0.02

%BLOCK SPECTRAL_KPOINTS_LIST
0.0 0.0 0.0
0.009523435845554304 0.009523435845554304 0.0
0.019046871691108608 0.019046871691108608 0.0
0.02857030753666291 0.02857030753666291 0.0
0.038093743382217216 0.038093743382217216 0.0
0.04761717922777152 0.04761717922777152 0.0
0.05714061507332582 0.05714061507332582 0.0
0.06666405091888013 0.06666405091888013 0.0
0.07618748676443443 0.07618748676443443 0.0
0.08571092260998874 0.08571092260998874 0.0
0.09523435845554304 0.09523435845554304 0.0
0.10475779430109733 0.10475779430109733 0.0
0.11428123014665165 0.11428123014665165 0.0
0.12380466599220595 0.12380466599220595 0.0
0.13332810183776025 0.13332810183776025 0.0
0.14285153768331457 0.14285153768331457 0.0
0.15237497352886886 0.15237497352886886 0.0
0.16189840937442315 0.16189840937442315 0.0
0.17142184521997747 0.17142184521997747 0.0
0.18094528106553176 0.18094528106553176 0.0
0.19046871691108608 0.19046871691108608 0.0
0.19999215275664037 0.19999215275664037 0.0
0.20951558860219466 0.20951558860219466 0.0
0.219039024447749 0.219039024447749 0.0
0.2285624602933033 0.2285624602933033 0.0
0.23808589613885758 0.23808589613885758 0.0
0.2476093319844119 0.2476093319844119 0.0
0.2571327678299662 0.2571327678299662 0.0
0.2666562036755205 0.2666562036755205 0.0
0.2761796395210748 0.2761796395210748 0.0
0.28570307536662914 0.28570307536662914 0.0
0.2952265112121834 0.2952265112121834 0.0
0.3047499470577377 0.3047499470577377 0.0
0.31427338290329204 0.31427338290329204 0.0
0.3237968187488463 0.3237968187488463 0.0
0.3333202545944006 0.3333202545944006 0.0
-0.3333202545944006 0.6666797454055994 0.0
-0.34312494550061234 0.6568750544993877 0.0
-0.35292963640682407 0.6470703635931759 0.0
-0.3627343273130358 0.6372656726869642 0.0
-0.3725390182192475 0.6274609817807525 0.0
-0.3823437091254593 0.6176562908745408 0.0
-0.392148400031671 0.607851599968329 0.0
-0.40195309093788273 0.5980469090621172 0.0
-0.41175778184409445 0.5882422181559055 0.0
-0.42156247275030617 0.5784375272496938 0.0
-0.4313671636565179 0.568632836343482 0.0
-0.44117185456272967 0.5588281454372703 0.0
-0.4509765454689414 0.5490234545310586 0.0
-0.4607812363751531 0.5392187636248469 0.0
-0.47058592728136484 0.5294140727186352 0.0
-0.48039061818757656 0.5196093818124234 0.0
-0.4901953090937883 0.5098046909062117 0.0
-0.5 0.5 0.0
-0.48333333333333334 0.48333333333333334 0.0
-0.4666666666666667 0.4666666666666667 0.0
-0.45 0.45 0.0
-0.43333333333333335 0.43333333333333335 0.0
-0.4166666666666667 0.4166666666666667 0.0
-0.4 0.4 0.0
-0.3833333333333333 0.3833333333333333 0.0
-0.3666666666666667 0.3666666666666667 0.0
-0.35 0.35 0.0
-0.33333333333333337 0.33333333333333337 0.0
-0.31666666666666665 0.31666666666666665 0.0
-0.3 0.3 0.0
-0.2833333333333333 0.2833333333333333 0.0
-0.26666666666666666 0.26666666666666666 0.0
-0.25 0.25 0.0
-0.23333333333333334 0.23333333333333334 0.0
-0.21666666666666667 0.21666666666666667 0.0
-0.2 0.2 0.0
-0.18333333333333335 0.18333333333333335 0.0
-0.16666666666666669 0.16666666666666669 0.0
-0.15000000000000002 0.15000000000000002 0.0
-0.13333333333333336 0.13333333333333336 0.0
-0.11666666666666664 0.11666666666666664 0.0
-0.09999999999999998 0.09999999999999998 0.0
-0.08333333333333331 0.08333333333333331 0.0
-0.06666666666666665 0.06666666666666665 0.0
-0.04999999999999999 0.04999999999999999 0.0
-0.033333333333333326 0.033333333333333326 0.0
-0.016666666666666663 0.016666666666666663 0.0
0.0 0.0 0.0
-0.014705882352941176 0.014705882352941176 0.014705882352941176
-0.029411764705882353 0.029411764705882353 0.029411764705882353
-0.04411764705882353 0.04411764705882353 0.04411764705882353
-0.058823529411764705 0.058823529411764705 0.058823529411764705
-0.07352941176470588 0.07352941176470588 0.07352941176470588
-0.08823529411764706 0.08823529411764706 0.08823529411764706
-0.10294117647058823 0.10294117647058823 0.10294117647058823
-0.11764705882352941 0.11764705882352941 0.11764705882352941
-0.1323529411764706 0.1323529411764706 0.1323529411764706
-0.14705882352941177 0.14705882352941177 0.14705882352941177
-0.16176470588235295 0.16176470588235295 0.16176470588235295
-0.17647058823529413 0.17647058823529413 0.17647058823529413
-0.19117647058823528 0.19117647058823528 0.19117647058823528
-0.20588235294117646 0.20588235294117646 0.20588235294117646
-0.22058823529411764 0.22058823529411764 0.22058823529411764
-0.23529411764705882 0.23529411764705882 0.23529411764705882
-0.25 0.25 0.25
-0.2647058823529412 0.2647058823529412 0.2647058823529412
-0.27941176470588236 0.27941176470588236 0.27941176470588236
-0.29411764705882354 0.29411764705882354 0.29411764705882354
-0.3088235294117647 0.3088235294117647 0.3088235294117647
-0.3235294117647059 0.3235294117647059 0.3235294117647059
-0.3382352941176471 0.3382352941176471 0.3382352941176471
-0.35294117647058826 0.35294117647058826 0.35294117647058826
-0.36764705882352944 0.36764705882352944 0.36764705882352944
-0.38235294117647056 0.38235294117647056 0.38235294117647056
-0.39705882352941174 0.39705882352941174 0.39705882352941174
-0.4117647058823529 0.4117647058823529 0.4117647058823529
-0.4264705882352941 0.4264705882352941 0.4264705882352941
-0.4411764705882353 0.4411764705882353 0.4411764705882353
-0.45588235294117646 0.45588235294117646 0.45588235294117646
-0.47058823529411764 0.47058823529411764 0.47058823529411764
-0.4852941176470588 0.4852941176470588 0.4852941176470588
-0.5 0.5 0.5
-0.4901953090453971 0.5098046909546029 0.5
-0.48039061809079425 0.5196093819092058 0.5
-0.47058592713619135 0.5294140728638086 0.5
-0.46078123618158845 0.5392187638184115 0.5
-0.4509765452269856 0.5490234547730144 0.5
-0.4411718542723827 0.5588281457276173 0.5
-0.4313671633177798 0.5686328366822202 0.5
-0.42156247236317695 0.5784375276368231 0.5
-0.41175778140857405 0.5882422185914259 0.5
-0.4019530904539712 0.5980469095460288 0.5
-0.3921483994993683 0.6078516005006317 0.5
-0.3823437085447654 0.6176562914552346 0.5
-0.3725390175901625 0.6274609824098375 0.5
-0.36273432663555966 0.6372656733644404 0.5
-0.3529296356809568 0.6470703643190432 0.5
-0.3431249447263539 0.6568750552736461 0.5
-0.333320253771751 0.666679746228249 0.5
0.333320253771751 0.333320253771751 0.5
0.323796817949701 0.323796817949701 0.5
0.31427338212765094 0.31427338212765094 0.5
0.3047499463056009 0.3047499463056009 0.5
0.29522651048355086 0.29522651048355086 0.5
0.28570307466150086 0.28570307466150086 0.5
0.27617963883945085 0.27617963883945085 0.5
0.2666562030174008 0.2666562030174008 0.5
0.2571327671953508 0.2571327671953508 0.5
0.24760933137330077 0.24760933137330077 0.5
0.2380858955512507 0.2380858955512507 0.5
0.2285624597292007 0.2285624597292007 0.5
0.21903902390715066 0.21903902390715066 0.5
0.20951558808510062 0.20951558808510062 0.5
0.1999921522630506 0.1999921522630506 0.5
0.19046871644100058 0.19046871644100058 0.5
0.18094528061895054 0.18094528061895054 0.5
0.17142184479690054 0.17142184479690054 0.5
0.1618984089748505 0.1618984089748505 0.5
0.15237497315280046 0.15237497315280046 0.5
0.14285153733075043 0.14285153733075043 0.5
0.13332810150870042 0.13332810150870042 0.5
0.12380466568665036 0.12380466568665036 0.5
0.11428122986460035 0.11428122986460035 0.5
0.10475779404255031 0.10475779404255031 0.5
0.0952343582205003 0.0952343582205003 0.5
0.08571092239845027 0.08571092239845027 0.5
0.07618748657640023 0.07618748657640023 0.5
0.06666405075435017 0.06666405075435017 0.5
0.05714061493230016 0.05714061493230016 0.5
0.04761717911025015 0.04761717911025015 0.5
0.03809374328820009 0.03809374328820009 0.5
0.02857030746615008 0.02857030746615008 0.5
0.019046871644100072 0.019046871644100072 0.5
0.009523435822050064 0.009523435822050064 0.5
0.0 0.0 0.5
0.0 0.0 0.4642857142857143
0.0 0.0 0.4285714285714286
0.0 0.0 0.39285714285714285
0.0 0.0 0.35714285714285715
0.0 0.0 0.3214285714285714
0.0 0.0 0.2857142857142857
0.0 0.0 0.25
0.0 0.0 0.2142857142857143
0.0 0.0 0.17857142857142855
0.0 0.0 0.14285714285714285
0.0 0.0 0.10714285714285715
0.0 0.0 0.07142857142857145
0.0 0.0 0.0357142857142857
0.0 0.0 0.0
0.0 0.5 0.5
0.0 0.4852941176470588 0.4852941176470588
0.0 0.47058823529411764 0.47058823529411764
0.0 0.45588235294117646 0.45588235294117646
0.0 0.4411764705882353 0.4411764705882353
0.0 0.4264705882352941 0.4264705882352941
0.0 0.4117647058823529 0.4117647058823529
0.0 0.3970588235294118 0.3970588235294118
0.0 0.38235294117647056 0.38235294117647056
0.0 0.36764705882352944 0.36764705882352944
0.0 0.3529411764705882 0.3529411764705882
0.0 0.3382352941176471 0.3382352941176471
0.0 0.32352941176470584 0.32352941176470584
0.0 0.3088235294117647 0.3088235294117647
0.0 0.29411764705882354 0.29411764705882354
0.0 0.27941176470588236 0.27941176470588236
0.0 0.2647058823529412 0.2647058823529412
0.0 0.25 0.25
0.0 0.23529411764705882 0.23529411764705882
0.0 0.22058823529411764 0.22058823529411764
0.0 0.20588235294117646 0.20588235294117646
0.0 0.19117647058823528 0.19117647058823528
0.0 0.1764705882352941 0.1764705882352941
0.0 0.16176470588235292 0.16176470588235292
0.0 0.14705882352941174 0.14705882352941174
0.0 0.13235294117647056 0.13235294117647056
0.0 0.11764705882352944 0.11764705882352944
0.0 0.10294117647058826 0.10294117647058826
0.0 0.08823529411764708 0.08823529411764708
0.0 0.0735294117647059 0.0735294117647059
0.0 0.05882352941176472 0.05882352941176472
0.0 0.04411764705882354 0.04411764705882354
0.0 0.02941176470588236 0.02941176470588236
0.0 0.01470588235294118 0.01470588235294118
0.0 0.0 0.0
0.0 0.016666666666666666 0.0
0.0 0.03333333333333333 0.0
0.0 0.05 0.0
0.0 0.06666666666666667 0.0
0.0 0.08333333333333333 0.0
0.0 0.1 0.0
0.0 0.11666666666666667 0.0
0.0 0.13333333333333333 0.0
0.0 0.15 0.0
0.0 0.16666666666666666 0.0
0.0 0.18333333333333332 0.0
0.0 0.2 0.0
0.0 0.21666666666666667 0.0
0.0 0.23333333333333334 0.0
0.0 0.25 0.0
0.0 0.26666666666666666 0.0
0.0 0.2833333333333333 0.0
0.0 0.3 0.0
0.0 0.31666666666666665 0.0
0.0 0.3333333333333333 0.0
0.0 0.35 0.0
0.0 0.36666666666666664 0.0
0.0 0.38333333333333336 0.0
0.0 0.4 0.0
0.0 0.4166666666666667 0.0
0.0 0.43333333333333335 0.0
0.0 0.45 0.0
0.0 0.4666666666666667 0.0
0.0 0.48333333333333334 0.0
0.0 0.5 0.0
%ENDBLOCK SPECTRAL_KPOINTS_LIST

SPECTRAL_KPOINTS_PATH_SPACING: 0.02
SYMMETRY_GENERATE
SNAP_TO_SYMMETRY
SYMMETRY_TOL: 1e-05

%BLOCK SPECIES_POT
P    P_OTF.usp
K    K_OTF.usp
%ENDBLOCK SPECIES_POT
