%block LATTICE_CART
ang
 21.8400000   0.0000000   0.0000000
  0.0000000  16.3800000   0.0000000
  0.0000000   0.0000000   40.4600000
%endblock LATTICE_CART

%block POSITIONS_ABS
ang
Si 0.0 0.0 0.0
Si 5.46 0.0 0.0
Si 10.92 0.0 0.0
Si 16.38 0.0 0.0
Si 2.73 2.73 0.0
Si 8.19 2.73 0.0
Si 13.65 2.73 0.0
Si 19.11 2.73 0.0
Si 0.0 5.46 0.0
Si 5.46 5.46 0.0
Si 10.92 5.46 0.0
Si 16.38 5.46 0.0
Si 2.73 8.19 0.0
Si 8.19 8.19 0.0
Si 13.65 8.19 0.0
Si 19.11 8.19 0.0
Si 0.0 10.92 0.0
Si 5.46 10.92 0.0
Si 10.92 10.92 0.0
Si 16.38 10.92 0.0
Si 2.73 13.65 0.0
Si 8.19 13.65 0.0
Si 13.65 13.65 0.0
Si 19.11 13.65 0.0
Si 1.365 1.365 -1.365
Si 6.825 1.365 -1.365
Si 12.285 1.365 -1.365
Si 17.745 1.365 -1.365
Si 4.095 4.095 -1.365
Si 9.555 4.095 -1.365
Si 15.015 4.095 -1.365
Si 20.475 4.095 -1.365
Si 1.365 6.825 -1.365
Si 6.825 6.825 -1.365
Si 12.285 6.825 -1.365
Si 17.745 6.825 -1.365
Si 4.095 9.555 -1.365
Si 9.555 9.555 -1.365
Si 15.015 9.555 -1.365
Si 20.475 9.555 -1.365
Si 1.365 12.285 -1.365
Si 6.825 12.285 -1.365
Si 12.285 12.285 -1.365
Si 17.745 12.285 -1.365
Si 4.095 15.015 -1.365
Si 9.555 15.015 -1.365
Si 15.015 15.015 -1.365
Si 20.475 15.015 -1.365
Si 2.73 0.0 -2.73
Si 8.19 0.0 -2.73
Si 13.65 0.0 -2.73
Si 19.11 0.0 -2.73
Si 0.0 2.73 -2.73
Si 5.46 2.73 -2.73
Si 10.92 2.73 -2.73
Si 16.38 2.73 -2.73
Si 2.73 5.46 -2.73
Si 8.19 5.46 -2.73
Si 13.65 5.46 -2.73
Si 19.11 5.46 -2.73
Si 0.0 8.19 -2.73
Si 5.46 8.19 -2.73
Si 10.92 8.19 -2.73
Si 16.38 8.19 -2.73
Si 2.73 10.92 -2.73
Si 8.19 10.92 -2.73
Si 13.65 10.92 -2.73
Si 19.11 10.92 -2.73
Si 0.0 13.65 -2.73
Si 5.46 13.65 -2.73
Si 10.92 13.65 -2.73
Si 16.38 13.65 -2.73
Si 4.095 1.365 -4.095
Si 9.555 1.365 -4.095
Si 15.015 1.365 -4.095
Si 20.475 1.365 -4.095
Si 1.365 4.095 -4.095
Si 6.825 4.095 -4.095
Si 12.285 4.095 -4.095
Si 17.745 4.095 -4.095
Si 4.095 6.825 -4.095
Si 9.555 6.825 -4.095
Si 15.015 6.825 -4.095
Si 20.475 6.825 -4.095
Si 1.365 9.555 -4.095
Si 6.825 9.555 -4.095
Si 12.285 9.555 -4.095
Si 17.745 9.555 -4.095
Si 4.095 12.285 -4.095
Si 9.555 12.285 -4.095
Si 15.015 12.285 -4.095
Si 20.475 12.285 -4.095
Si 1.365 15.015 -4.095
Si 6.825 15.015 -4.095
Si 12.285 15.015 -4.095
Si 17.745 15.015 -4.095
Si 6.825 1.365 1.365
Si 12.285 1.365 1.365
Si 9.555 4.095 1.365
Si 15.015 4.095 1.365
Si 6.825 6.825 1.365
Si 12.285 6.825 1.365
Si 9.555 9.555 1.365
Si 15.015 9.555 1.365
Si 6.825 12.285 1.365
Si 12.285 12.285 1.365
Si 9.555 15.015 1.365
Si 15.015 15.015 1.365
Si 8.19 0.0 2.73
Si 13.65 0.0 2.73
Si 5.46 2.73 2.73
Si 10.92 2.73 2.73
Si 8.19 5.46 2.73
Si 13.65 5.46 2.73
Si 5.46 8.19 2.73
Si 10.92 8.19 2.73
Si 8.19 10.92 2.73
Si 13.65 10.92 2.73
Si 5.46 13.65 2.73
Si 10.92 13.65 2.73
Si 9.555 1.365 4.095
Si 15.015 1.365 4.095
Si 6.825 4.095 4.095
Si 12.285 4.095 4.095
Si 9.555 6.825 4.095
Si 15.015 6.825 4.095
Si 6.825 9.555 4.095
Si 12.285 9.555 4.095
Si 9.555 12.285 4.095
Si 15.015 12.285 4.095
Si 6.825 15.015 4.095
Si 12.285 15.015 4.095
Si 5.46 0.0 5.46
Si 10.92 0.0 5.46
Si 8.19 2.73 5.46
Si 13.65 2.73 5.46
Si 5.46 5.46 5.46
Si 10.92 5.46 5.46
Si 8.19 8.19 5.46
Si 13.65 8.19 5.46
Si 5.46 10.92 5.46
Si 10.92 10.92 5.46
Si 8.19 13.65 5.46
Si 13.65 13.65 5.46
Si 6.825 1.365 6.825
Si 12.285 1.365 6.825
Si 9.555 4.095 6.825
Si 15.015 4.095 6.825
Si 6.825 6.825 6.825
Si 12.285 6.825 6.825
Si 9.555 9.555 6.825
Si 15.015 9.555 6.825
Si 6.825 12.285 6.825
Si 12.285 12.285 6.825
Si 9.555 15.015 6.825
Si 15.015 15.015 6.825
Si 8.19 0.0 8.19
Si 13.65 0.0 8.19
Si 5.46 2.73 8.19
Si 10.92 2.73 8.19
Si 8.19 5.46 8.19
Si 13.65 5.46 8.19
Si 5.46 8.19 8.19
Si 10.92 8.19 8.19
Si 8.19 10.92 8.19
Si 13.65 10.92 8.19
Si 5.46 13.65 8.19
Si 10.92 13.65 8.19
Si 9.555 1.365 9.555
Si 15.015 1.365 9.555
Si 6.825 4.095 9.555
Si 12.285 4.095 9.555
Si 9.555 6.825 9.555
Si 15.015 6.825 9.555
Si 6.825 9.555 9.555
Si 12.285 9.555 9.555
Si 9.555 12.285 9.555
Si 15.015 12.285 9.555
Si 6.825 15.015 9.555
Si 12.285 15.015 9.555
Si 5.46 0.0 10.92
Si 10.92 0.0 10.92
Si 8.19 2.73 10.92
Si 13.65 2.73 10.92
Si 5.46 5.46 10.92
Si 10.92 5.46 10.92
Si 8.19 8.19 10.92
Si 13.65 8.19 10.92
Si 5.46 10.92 10.92
Si 10.92 10.92 10.92
Si 8.19 13.65 10.92
Si 13.65 13.65 10.92
%endblock POSITIONS_ABS
