#*****************************************************************************************
#*                     Generated by cif2cell 1.0.14 2017-08-10 19:21                     *
#*                   Data obtained from ICSD. Reference number : 23848                   *
#*                     Al5 Y3 O12   (Pentaaluminium triyttrium oxide)                    *
#* Euler, F. and Bruce, J.A., Acta Crystallographica (1,1948-23,1967) 19, 971-978 (1965) *
#*****************************************************************************************

%BLOCK LATTICE_CART
ang    # angstrom units
  -6.000000000000000   6.000000000000000   6.000000000000000
   6.000000000000000  -6.000000000000000   6.000000000000000
   6.000000000000000   6.000000000000000  -6.000000000000000
%ENDBLOCK LATTICE_CART

%BLOCK POSITIONS_FRAC
Y    0.250000000000000   0.375000000000000   0.125000000000000 
Y    0.625000000000000   0.250000000000000   0.875000000000000 
Y    0.625000000000000   0.875000000000000   0.750000000000000 
Y    0.875000000000000   0.625000000000000   0.250000000000000 
Y    0.875000000000000   0.750000000000000   0.625000000000000 
Y    0.375000000000000   0.125000000000000   0.250000000000000 
Y    0.125000000000000   0.250000000000000   0.375000000000000 
Y    0.375000000000000   0.750000000000000   0.125000000000000 
Y    0.125000000000000   0.375000000000000   0.750000000000000 
Y    0.250000000000000   0.875000000000000   0.625000000000000 
Y    0.750000000000000   0.125000000000000   0.375000000000000 
Y    0.750000000000000   0.625000000000000   0.875000000000000 
Al   0.000000000000000   0.000000000000000   0.000000000000000 
Al   0.500000000000000   0.000000000000000   0.500000000000000 
Al   0.000000000000000   0.500000000000000   0.500000000000000 
Al   0.000000000000000   0.000000000000000   0.500000000000000 
Al   0.500000000000000   0.500000000000000   0.500000000000000 
Al   0.000000000000000   0.500000000000000   0.000000000000000 
Al   0.500000000000000   0.000000000000000   0.000000000000000 
Al   0.500000000000000   0.500000000000000   0.000000000000000 
Al   0.250000000000000   0.625000000000000   0.375000000000000 
Al   0.875000000000000   0.250000000000000   0.125000000000000 
Al   0.375000000000000   0.625000000000000   0.750000000000000 
Al   0.125000000000000   0.875000000000000   0.250000000000000 
Al   0.625000000000000   0.375000000000000   0.250000000000000 
Al   0.125000000000000   0.750000000000000   0.875000000000000 
Al   0.250000000000000   0.125000000000000   0.875000000000000 
Al   0.625000000000000   0.750000000000000   0.375000000000000 
Al   0.875000000000000   0.125000000000000   0.750000000000000 
Al   0.750000000000000   0.375000000000000   0.625000000000000 
Al   0.375000000000000   0.250000000000000   0.625000000000000 
Al   0.750000000000000   0.875000000000000   0.125000000000000 
O    0.201200000000000   0.119400000000000   0.020600000000000 
O    0.418200000000000   0.098800000000000   0.619400000000000 
O    0.680600000000000   0.081800000000000   0.701200000000000 
O    0.819400000000000   0.520600000000000   0.401200000000000 
O    0.081800000000000   0.880600000000000   0.401200000000000 
O    0.619400000000000   0.701200000000000   0.520600000000000 
O    0.201200000000000   0.581800000000000   0.180600000000000 
O    0.319400000000000   0.918200000000000   0.298800000000000 
O    0.380600000000000   0.298800000000000   0.479400000000000 
O    0.319400000000000   0.901200000000000   0.020600000000000 
O    0.380600000000000   0.581800000000000   0.901200000000000 
O    0.619400000000000   0.418200000000000   0.098800000000000 
O    0.098800000000000   0.619400000000000   0.418200000000000 
O    0.979400000000000   0.798800000000000   0.880600000000000 
O    0.819400000000000   0.798800000000000   0.418200000000000 
O    0.880600000000000   0.979400000000000   0.798800000000000 
O    0.418200000000000   0.819400000000000   0.798800000000000 
O    0.901200000000000   0.020600000000000   0.319400000000000 
O    0.020600000000000   0.201200000000000   0.119400000000000 
O    0.119400000000000   0.598800000000000   0.918200000000000 
O    0.701200000000000   0.520600000000000   0.619400000000000 
O    0.479400000000000   0.598800000000000   0.180600000000000 
O    0.598800000000000   0.918200000000000   0.119400000000000 
O    0.979400000000000   0.680600000000000   0.098800000000000 
O    0.581800000000000   0.901200000000000   0.380600000000000 
O    0.020600000000000   0.319400000000000   0.901200000000000 
O    0.918200000000000   0.298800000000000   0.319400000000000 
O    0.598800000000000   0.180600000000000   0.479400000000000 
O    0.180600000000000   0.479400000000000   0.598800000000000 
O    0.298800000000000   0.479400000000000   0.380600000000000 
O    0.701200000000000   0.680600000000000   0.081800000000000 
O    0.081800000000000   0.701200000000000   0.680600000000000 
O    0.098800000000000   0.979400000000000   0.680600000000000 
O    0.401200000000000   0.081800000000000   0.880600000000000 
O    0.401200000000000   0.819400000000000   0.520600000000000 
O    0.798800000000000   0.880600000000000   0.979400000000000 
O    0.180600000000000   0.201200000000000   0.581800000000000 
O    0.798800000000000   0.418200000000000   0.819400000000000 
O    0.918200000000000   0.119400000000000   0.598800000000000 
O    0.479400000000000   0.380600000000000   0.298800000000000 
O    0.581800000000000   0.180600000000000   0.201200000000000 
O    0.119400000000000   0.020600000000000   0.201200000000000 
O    0.880600000000000   0.401200000000000   0.081800000000000 
O    0.298800000000000   0.319400000000000   0.918200000000000 
O    0.901200000000000   0.380600000000000   0.581800000000000 
O    0.680600000000000   0.098800000000000   0.979400000000000 
O    0.520600000000000   0.401200000000000   0.819400000000000 
O    0.520600000000000   0.619400000000000   0.701200000000000 
%ENDBLOCK POSITIONS_FRAC

# Commented out pseudopotential block for easy editing
#%BLOCK SPECIES_POT
# Y   Y_00.usp
# Al  Al_00.usp
# O   O_00.usp
#%ENDBLOCK SPECIES_POT

%BLOCK SYMMETRY_OPS
# Symm. op. 1
  1.000000000000000   0.000000000000000   0.000000000000000 
  0.000000000000000   1.000000000000000   0.000000000000000 
  0.000000000000000   0.000000000000000   1.000000000000000 
  0.000000000000000   0.000000000000000   0.000000000000000 
# Symm. op. 2
 -1.000000000000000   0.000000000000000   0.000000000000000 
  0.000000000000000  -1.000000000000000   0.000000000000000 
  0.000000000000000   0.000000000000000  -1.000000000000000 
  0.000000000000000   0.000000000000000   0.000000000000000 
# Symm. op. 3
  0.000000000000000  -1.000000000000000   0.000000000000000 
  0.000000000000000   0.000000000000000  -1.000000000000000 
 -1.000000000000000   0.000000000000000   0.000000000000000 
  0.000000000000000   0.000000000000000   0.000000000000000 
# Symm. op. 4
  0.000000000000000   0.000000000000000  -1.000000000000000 
 -1.000000000000000   0.000000000000000   0.000000000000000 
  0.000000000000000  -1.000000000000000   0.000000000000000 
  0.000000000000000   0.000000000000000   0.000000000000000 
# Symm. op. 5
  0.000000000000000   1.000000000000000   0.000000000000000 
  0.000000000000000   0.000000000000000   1.000000000000000 
  1.000000000000000   0.000000000000000   0.000000000000000 
  0.000000000000000   0.000000000000000   0.000000000000000 
# Symm. op. 6
  0.000000000000000   0.000000000000000   1.000000000000000 
  1.000000000000000   0.000000000000000   0.000000000000000 
  0.000000000000000   1.000000000000000   0.000000000000000 
  0.000000000000000   0.000000000000000   0.000000000000000 
# Symm. op. 7
  0.000000000000000   0.000000000000000  -1.000000000000000 
  0.000000000000000   1.000000000000000   0.000000000000000 
 -1.000000000000000   0.000000000000000   0.000000000000000 
  0.000000000000000   0.000000000000000   0.500000000000000 
# Symm. op. 8
 -1.000000000000000   0.000000000000000   0.000000000000000 
  0.000000000000000   0.000000000000000   1.000000000000000 
  0.000000000000000   1.000000000000000   0.000000000000000 
  0.000000000000000   0.500000000000000   0.000000000000000 
# Symm. op. 9
  0.000000000000000   1.000000000000000   0.000000000000000 
  1.000000000000000   0.000000000000000   0.000000000000000 
  0.000000000000000   0.000000000000000  -1.000000000000000 
  0.500000000000000   0.000000000000000   0.000000000000000 
# Symm. op. 10
  0.000000000000000   1.000000000000000   0.000000000000000 
 -1.000000000000000   0.000000000000000   0.000000000000000 
  0.000000000000000   0.000000000000000  -1.000000000000000 
  0.000000000000000   0.000000000000000   0.500000000000000 
# Symm. op. 11
  0.000000000000000   0.000000000000000   1.000000000000000 
  0.000000000000000  -1.000000000000000   0.000000000000000 
 -1.000000000000000   0.000000000000000   0.000000000000000 
  0.500000000000000   0.000000000000000   0.000000000000000 
# Symm. op. 12
  1.000000000000000   0.000000000000000   0.000000000000000 
  0.000000000000000   0.000000000000000   1.000000000000000 
  0.000000000000000  -1.000000000000000   0.000000000000000 
  0.000000000000000   0.000000000000000   0.500000000000000 
# Symm. op. 13
  0.000000000000000   1.000000000000000   0.000000000000000 
 -1.000000000000000   0.000000000000000   0.000000000000000 
  0.000000000000000   0.000000000000000   1.000000000000000 
  0.000000000000000   0.500000000000000   0.000000000000000 
# Symm. op. 14
  1.000000000000000   0.000000000000000   0.000000000000000 
  0.000000000000000   0.000000000000000  -1.000000000000000 
  0.000000000000000   1.000000000000000   0.000000000000000 
  0.500000000000000   0.000000000000000   0.000000000000000 
# Symm. op. 15
  0.000000000000000   0.000000000000000  -1.000000000000000 
  0.000000000000000  -1.000000000000000   0.000000000000000 
  1.000000000000000   0.000000000000000   0.000000000000000 
  0.000000000000000   0.500000000000000   0.000000000000000 
# Symm. op. 16
  0.000000000000000   0.000000000000000   1.000000000000000 
  0.000000000000000   1.000000000000000   0.000000000000000 
 -1.000000000000000   0.000000000000000   0.000000000000000 
  0.000000000000000   0.500000000000000   0.000000000000000 
# Symm. op. 17
 -1.000000000000000   0.000000000000000   0.000000000000000 
  0.000000000000000   0.000000000000000  -1.000000000000000 
  0.000000000000000   1.000000000000000   0.000000000000000 
  0.000000000000000   0.000000000000000   0.500000000000000 
# Symm. op. 18
 -1.000000000000000   0.000000000000000   0.000000000000000 
  0.000000000000000   0.000000000000000   1.000000000000000 
  0.000000000000000  -1.000000000000000   0.000000000000000 
  0.500000000000000   0.000000000000000   0.000000000000000 
# Symm. op. 19
  0.000000000000000  -1.000000000000000   0.000000000000000 
  1.000000000000000   0.000000000000000   0.000000000000000 
  0.000000000000000   0.000000000000000   1.000000000000000 
  0.000000000000000   0.000000000000000   0.500000000000000 
# Symm. op. 20
  1.000000000000000   0.000000000000000   0.000000000000000 
  0.000000000000000   0.000000000000000  -1.000000000000000 
  0.000000000000000  -1.000000000000000   0.000000000000000 
  0.000000000000000   0.500000000000000   0.000000000000000 
# Symm. op. 21
  0.000000000000000   0.000000000000000   1.000000000000000 
  0.000000000000000  -1.000000000000000   0.000000000000000 
  1.000000000000000   0.000000000000000   0.000000000000000 
  0.000000000000000   0.000000000000000   0.500000000000000 
# Symm. op. 22
  0.000000000000000   0.000000000000000  -1.000000000000000 
  0.000000000000000   1.000000000000000   0.000000000000000 
  1.000000000000000   0.000000000000000   0.000000000000000 
  0.500000000000000   0.000000000000000   0.000000000000000 
# Symm. op. 23
  0.000000000000000  -1.000000000000000   0.000000000000000 
  1.000000000000000   0.000000000000000   0.000000000000000 
  0.000000000000000   0.000000000000000  -1.000000000000000 
  0.000000000000000   0.500000000000000   0.000000000000000 
# Symm. op. 24
  0.000000000000000  -1.000000000000000   0.000000000000000 
 -1.000000000000000   0.000000000000000   0.000000000000000 
  0.000000000000000   0.000000000000000   1.000000000000000 
  0.500000000000000   0.000000000000000   0.000000000000000 
# Symm. op. 25
  1.000000000000000   0.000000000000000   0.000000000000000 
  0.000000000000000  -1.000000000000000   0.000000000000000 
  0.000000000000000   0.000000000000000   1.000000000000000 
  0.000000000000000   0.500000000000000   0.500000000000000 
# Symm. op. 26
 -1.000000000000000   0.000000000000000   0.000000000000000 
  0.000000000000000  -1.000000000000000   0.000000000000000 
  0.000000000000000   0.000000000000000   1.000000000000000 
  0.500000000000000   0.000000000000000   0.500000000000000 
# Symm. op. 27
 -1.000000000000000   0.000000000000000   0.000000000000000 
  0.000000000000000   1.000000000000000   0.000000000000000 
  0.000000000000000   0.000000000000000   1.000000000000000 
  0.500000000000000   0.500000000000000   0.000000000000000 
# Symm. op. 28
  1.000000000000000   0.000000000000000   0.000000000000000 
  0.000000000000000   1.000000000000000   0.000000000000000 
  0.000000000000000   0.000000000000000  -1.000000000000000 
  0.500000000000000   0.000000000000000   0.500000000000000 
# Symm. op. 29
  1.000000000000000   0.000000000000000   0.000000000000000 
  0.000000000000000  -1.000000000000000   0.000000000000000 
  0.000000000000000   0.000000000000000  -1.000000000000000 
  0.500000000000000   0.500000000000000   0.000000000000000 
# Symm. op. 30
 -1.000000000000000   0.000000000000000   0.000000000000000 
  0.000000000000000   1.000000000000000   0.000000000000000 
  0.000000000000000   0.000000000000000  -1.000000000000000 
  0.000000000000000   0.500000000000000   0.500000000000000 
# Symm. op. 31
  0.000000000000000   1.000000000000000   0.000000000000000 
  0.000000000000000   0.000000000000000  -1.000000000000000 
  1.000000000000000   0.000000000000000   0.000000000000000 
  0.500000000000000   0.000000000000000   0.500000000000000 
# Symm. op. 32
  0.000000000000000   0.000000000000000  -1.000000000000000 
  1.000000000000000   0.000000000000000   0.000000000000000 
  0.000000000000000   1.000000000000000   0.000000000000000 
  0.500000000000000   0.000000000000000   0.500000000000000 
# Symm. op. 33
  0.000000000000000   0.000000000000000   1.000000000000000 
  1.000000000000000   0.000000000000000   0.000000000000000 
  0.000000000000000  -1.000000000000000   0.000000000000000 
  0.000000000000000   0.500000000000000   0.500000000000000 
# Symm. op. 34
  0.000000000000000   0.000000000000000   1.000000000000000 
 -1.000000000000000   0.000000000000000   0.000000000000000 
  0.000000000000000  -1.000000000000000   0.000000000000000 
  0.500000000000000   0.000000000000000   0.500000000000000 
# Symm. op. 35
  0.000000000000000   0.000000000000000  -1.000000000000000 
  1.000000000000000   0.000000000000000   0.000000000000000 
  0.000000000000000  -1.000000000000000   0.000000000000000 
  0.500000000000000   0.500000000000000   0.000000000000000 
# Symm. op. 36
  0.000000000000000   0.000000000000000   1.000000000000000 
 -1.000000000000000   0.000000000000000   0.000000000000000 
  0.000000000000000   1.000000000000000   0.000000000000000 
  0.500000000000000   0.500000000000000   0.000000000000000 
# Symm. op. 37
  0.000000000000000  -1.000000000000000   0.000000000000000 
  0.000000000000000   0.000000000000000  -1.000000000000000 
  1.000000000000000   0.000000000000000   0.000000000000000 
  0.500000000000000   0.500000000000000   0.000000000000000 
# Symm. op. 38
  0.000000000000000  -1.000000000000000   0.000000000000000 
  0.000000000000000   0.000000000000000   1.000000000000000 
 -1.000000000000000   0.000000000000000   0.000000000000000 
  0.500000000000000   0.000000000000000   0.500000000000000 
# Symm. op. 39
  0.000000000000000   1.000000000000000   0.000000000000000 
  0.000000000000000   0.000000000000000  -1.000000000000000 
 -1.000000000000000   0.000000000000000   0.000000000000000 
  0.000000000000000   0.500000000000000   0.500000000000000 
# Symm. op. 40
  0.000000000000000   0.000000000000000  -1.000000000000000 
 -1.000000000000000   0.000000000000000   0.000000000000000 
  0.000000000000000   1.000000000000000   0.000000000000000 
  0.000000000000000   0.500000000000000   0.500000000000000 
# Symm. op. 41
  0.000000000000000  -1.000000000000000   0.000000000000000 
  0.000000000000000   0.000000000000000   1.000000000000000 
  1.000000000000000   0.000000000000000   0.000000000000000 
  0.000000000000000   0.500000000000000   0.500000000000000 
# Symm. op. 42
  0.000000000000000   1.000000000000000   0.000000000000000 
  0.000000000000000   0.000000000000000   1.000000000000000 
 -1.000000000000000   0.000000000000000   0.000000000000000 
  0.500000000000000   0.500000000000000   0.000000000000000 
# Symm. op. 43
  0.000000000000000   1.000000000000000   0.000000000000000 
  1.000000000000000   0.000000000000000   0.000000000000000 
  0.000000000000000   0.000000000000000   1.000000000000000 
  0.500000000000000   0.500000000000000   0.500000000000000 
# Symm. op. 44
  0.000000000000000  -1.000000000000000   0.000000000000000 
 -1.000000000000000   0.000000000000000   0.000000000000000 
  0.000000000000000   0.000000000000000  -1.000000000000000 
  0.500000000000000   0.500000000000000   0.500000000000000 
# Symm. op. 45
  1.000000000000000   0.000000000000000   0.000000000000000 
  0.000000000000000   0.000000000000000   1.000000000000000 
  0.000000000000000   1.000000000000000   0.000000000000000 
  0.500000000000000   0.500000000000000   0.500000000000000 
# Symm. op. 46
 -1.000000000000000   0.000000000000000   0.000000000000000 
  0.000000000000000   0.000000000000000  -1.000000000000000 
  0.000000000000000  -1.000000000000000   0.000000000000000 
  0.500000000000000   0.500000000000000   0.500000000000000 
# Symm. op. 47
  0.000000000000000   0.000000000000000  -1.000000000000000 
  0.000000000000000  -1.000000000000000   0.000000000000000 
 -1.000000000000000   0.000000000000000   0.000000000000000 
  0.500000000000000   0.500000000000000   0.500000000000000 
# Symm. op. 48
  0.000000000000000   0.000000000000000   1.000000000000000 
  0.000000000000000   1.000000000000000   0.000000000000000 
  1.000000000000000   0.000000000000000   0.000000000000000 
  0.500000000000000   0.500000000000000   0.500000000000000 
%ENDBLOCK SYMMETRY_OPS
