# CELL file written 23:40:10 (GMT+1.0) 26th March 2018 from run KP-NaP-CollCode56530-std
%BLOCK lattice_cart
   ANG
       11.4518745146637        0.00000000000000       0.145907794551095E-02
       0.00000000000000        5.09448137301246        0.00000000000000
      -3.91441565061716        0.00000000000000        9.18378851243459
%ENDBLOCK lattice_cart


%BLOCK positions_frac
   P              0.087951000000000       0.500000000000000       0.603944000000000
   P              0.042934000000000       0.500000000000000       0.799236000000000
   P              0.957066000000000       0.500000000000000       0.200764000000000
   P              0.912049000000000       0.500000000000000       0.396056000000000
   P              0.587951000000000       0.000000000000000       0.603944000000000
   P              0.542934000000000       0.000000000000000       0.799236000000000
   P              0.457066000000000       0.000000000000000       0.200764000000000
   P              0.412049000000000       0.000000000000000       0.396056000000000
   K              0.000000000000000       0.000000000000000       0.000000000000000
   K              0.887793000000000       0.000000000000000       0.596411000000000
   K              0.754706000000000       0.000000000000000       0.171430000000000
   K              0.245294000000000       0.000000000000000       0.828570000000000
   K              0.112207000000000       0.000000000000000       0.403589000000000
   K              0.500000000000000       0.500000000000000       0.000000000000000
   K              0.387793000000000       0.500000000000000       0.596411000000000
   K              0.254706000000000       0.500000000000000       0.171430000000000
   K              0.745294000000000       0.500000000000000       0.828570000000000
   K              0.612207000000000       0.500000000000000       0.403589000000000
%ENDBLOCK positions_frac

%BLOCK EXTERNAL_EFIELD
0.5 0.0 0.0
%ENDBLOCK EXTERNAL_EFIELD

%BLOCK HUBBARD_U
eV
K s: 2
P p: 3.0
U d: 10.101
%ENDBLOCK HUBBARD_U

%BLOCK species_pot
   P       3|1.8|4|4|5|30:31:32
   K       2|1.5|9|10|11|30U:40:31(qc=6)
%ENDBLOCK species_pot

SYMMETRY_TOL :     0.000100
SNAP_TO_SYMMETRY
SYMMETRY_GENERATE

kpoint_mp_spacing: 0.03
PHONON_KPOINT_MP_GRID: 2 2 2
PHONON_KPOINT_MP_OFFSET: 0.25 0.25 0.25
PHONON_FINE_KPOINT_MP_SPACING : 0.02
PHONON_FINE_KPOINT_PATH_SPACING : 0.01

%BLOCK PHONON_SUPERCELL_MATRIX
3 0 1
0 3 0
0 0 9
%ENDBLOCK PHONON_SUPERCELL_MATRIX

%BLOCK cell_constraints
1 2 3
4 4 4
%endblock cell_constraints
