# CELL file written 17:26:26 (GMT+1.0) 5th May 2018 from run Li2C2_12_127_C2_m_jduf

%BLOCK lattice_cart
   ANG
       4.62628147450775      -0.179777444408418       0.356692382582223E-01
       1.61719705149983        4.33814175742470       0.356692382582223E-01
     -0.315348559201625      -0.210032626729267        4.65855035981617    
%ENDBLOCK lattice_cart

%BLOCK cell_constraints
      1   1   3
      4   4   6
%ENDBLOCK cell_constraints

%BLOCK positions_frac
   Li             0.121148762527045       0.521771744767132       0.273274105472023
   Li             0.478228255232868       0.878851237472955       0.726725894527977
   Li             0.878851237472955       0.478228255232868       0.726725894527977
   Li             0.521771744767132       0.121148762527045       0.273274105472023
   C              0.137499578208091       0.862500421791909       0.000000000000000
   C              0.862500421791909       0.137499578208091       0.000000000000000
   C              0.919867177860858       0.919867177860858       0.567246777142249
   C              0.080132822139142       0.080132822139142       0.432753222857751
%ENDBLOCK positions_frac

FIX_COM : true

%BLOCK species_gamma
   radsectesla
   Li         103977013.0    
%ENDBLOCK species_gamma

%BLOCK species_pot
   Li      Li_00PBE.usp
   C       C_00PBE.usp
%ENDBLOCK species_pot

SYMMETRY_TOL :     0.001000

%BLOCK symmetry_ops
# Symm. op. 1       E
          1.000000000000000       0.000000000000000       0.000000000000000
          0.000000000000000       1.000000000000000       0.000000000000000
         -0.000000000000000      -0.000000000000000       1.000000000000000
          0.000000000000000       0.000000000000000       0.000000000000000
# Symm. op. 2       I
         -1.000000000000000       0.000000000000000       0.000000000000000
         -0.000000000000000      -1.000000000000000       0.000000000000000
          0.000000000000000       0.000000000000000      -1.000000000000000
          0.000000000000000       0.000000000000000       0.000000000000000
# Symm. op. 3       2
         -0.385425043262851      -0.922739148419438       0.000000000000000
         -0.922739148419438       0.385425043262851       0.000000000000000
          0.000000000000000       0.000000000000000      -1.000000000000000
          0.000000000000000       0.000000000000000       0.000000000000000
# Symm. op. 4       m
          0.385425043262851       0.922739148419438       0.000000000000000
          0.922739148419438      -0.385425043262851       0.000000000000000
         -0.000000000000000      -0.000000000000000       1.000000000000000
          0.000000000000000       0.000000000000000       0.000000000000000
%ENDBLOCK symmetry_ops

%BLOCK kpoint_list
         -0.375000000000000      -0.375000000000000      -0.125000000000000       0.031250000000000
         -0.375000000000000      -0.375000000000000       0.125000000000000       0.031250000000000
         -0.125000000000000      -0.375000000000000      -0.375000000000000       0.062500000000000
         -0.125000000000000      -0.375000000000000      -0.125000000000000       0.062500000000000
         -0.125000000000000      -0.375000000000000       0.125000000000000       0.062500000000000
         -0.125000000000000      -0.375000000000000       0.375000000000000       0.062500000000000
         -0.125000000000000      -0.125000000000000      -0.375000000000000       0.031250000000000
         -0.125000000000000       0.375000000000000       0.375000000000000       0.062500000000000
          0.125000000000000      -0.375000000000000      -0.125000000000000       0.062500000000000
          0.125000000000000      -0.375000000000000       0.125000000000000       0.062500000000000
          0.125000000000000      -0.375000000000000       0.375000000000000       0.062500000000000
          0.125000000000000      -0.125000000000000      -0.375000000000000       0.062500000000000
          0.125000000000000      -0.125000000000000      -0.125000000000000       0.062500000000000
          0.125000000000000       0.125000000000000      -0.375000000000000       0.031250000000000
          0.125000000000000       0.125000000000000      -0.125000000000000       0.031250000000000
          0.125000000000000       0.125000000000000       0.125000000000000       0.031250000000000
          0.375000000000000      -0.375000000000000      -0.375000000000000       0.062500000000000
          0.375000000000000      -0.375000000000000       0.125000000000000       0.062500000000000
          0.375000000000000       0.375000000000000      -0.375000000000000       0.031250000000000
          0.375000000000000       0.375000000000000       0.375000000000000       0.031250000000000
%ENDBLOCK kpoint_list

%BLOCK bs_kpoint_list
         -0.375000000000000      -0.375000000000000      -0.125000000000000       0.031250000000000
         -0.375000000000000      -0.375000000000000       0.125000000000000       0.031250000000000
         -0.125000000000000      -0.375000000000000      -0.375000000000000       0.062500000000000
         -0.125000000000000      -0.375000000000000      -0.125000000000000       0.062500000000000
         -0.125000000000000      -0.375000000000000       0.125000000000000       0.062500000000000
         -0.125000000000000      -0.375000000000000       0.375000000000000       0.062500000000000
         -0.125000000000000      -0.125000000000000      -0.375000000000000       0.031250000000000
         -0.125000000000000       0.375000000000000       0.375000000000000       0.062500000000000
          0.125000000000000      -0.375000000000000      -0.125000000000000       0.062500000000000
          0.125000000000000      -0.375000000000000       0.125000000000000       0.062500000000000
          0.125000000000000      -0.375000000000000       0.375000000000000       0.062500000000000
          0.125000000000000      -0.125000000000000      -0.375000000000000       0.062500000000000
          0.125000000000000      -0.125000000000000      -0.125000000000000       0.062500000000000
          0.125000000000000       0.125000000000000      -0.375000000000000       0.031250000000000
          0.125000000000000       0.125000000000000      -0.125000000000000       0.031250000000000
          0.125000000000000       0.125000000000000       0.125000000000000       0.031250000000000
          0.375000000000000      -0.375000000000000      -0.375000000000000       0.062500000000000
          0.375000000000000      -0.375000000000000       0.125000000000000       0.062500000000000
          0.375000000000000       0.375000000000000      -0.375000000000000       0.031250000000000
          0.375000000000000       0.375000000000000       0.375000000000000       0.031250000000000
%ENDBLOCK bs_kpoint_list

%BLOCK spectral_kpoint_list
         -0.375000000000000      -0.375000000000000      -0.125000000000000       0.031250000000000
         -0.375000000000000      -0.375000000000000       0.125000000000000       0.031250000000000
         -0.125000000000000      -0.375000000000000      -0.375000000000000       0.062500000000000
         -0.125000000000000      -0.375000000000000      -0.125000000000000       0.062500000000000
         -0.125000000000000      -0.375000000000000       0.125000000000000       0.062500000000000
         -0.125000000000000      -0.375000000000000       0.375000000000000       0.062500000000000
         -0.125000000000000      -0.125000000000000      -0.375000000000000       0.031250000000000
         -0.125000000000000       0.375000000000000       0.375000000000000       0.062500000000000
          0.125000000000000      -0.375000000000000      -0.125000000000000       0.062500000000000
          0.125000000000000      -0.375000000000000       0.125000000000000       0.062500000000000
          0.125000000000000      -0.375000000000000       0.375000000000000       0.062500000000000
          0.125000000000000      -0.125000000000000      -0.375000000000000       0.062500000000000
          0.125000000000000      -0.125000000000000      -0.125000000000000       0.062500000000000
          0.125000000000000       0.125000000000000      -0.375000000000000       0.031250000000000
          0.125000000000000       0.125000000000000      -0.125000000000000       0.031250000000000
          0.125000000000000       0.125000000000000       0.125000000000000       0.031250000000000
          0.375000000000000      -0.375000000000000      -0.375000000000000       0.062500000000000
          0.375000000000000      -0.375000000000000       0.125000000000000       0.062500000000000
          0.375000000000000       0.375000000000000      -0.375000000000000       0.031250000000000
          0.375000000000000       0.375000000000000       0.375000000000000       0.031250000000000
%ENDBLOCK spectral_kpoint_list

%BLOCK optics_kpoint_list
         -0.375000000000000      -0.375000000000000      -0.125000000000000       0.031250000000000
         -0.375000000000000      -0.375000000000000       0.125000000000000       0.031250000000000
         -0.125000000000000      -0.375000000000000      -0.375000000000000       0.062500000000000
         -0.125000000000000      -0.375000000000000      -0.125000000000000       0.062500000000000
         -0.125000000000000      -0.375000000000000       0.125000000000000       0.062500000000000
         -0.125000000000000      -0.375000000000000       0.375000000000000       0.062500000000000
         -0.125000000000000      -0.125000000000000      -0.375000000000000       0.031250000000000
         -0.125000000000000       0.375000000000000       0.375000000000000       0.062500000000000
          0.125000000000000      -0.375000000000000      -0.125000000000000       0.062500000000000
          0.125000000000000      -0.375000000000000       0.125000000000000       0.062500000000000
          0.125000000000000      -0.375000000000000       0.375000000000000       0.062500000000000
          0.125000000000000      -0.125000000000000      -0.375000000000000       0.062500000000000
          0.125000000000000      -0.125000000000000      -0.125000000000000       0.062500000000000
          0.125000000000000       0.125000000000000      -0.375000000000000       0.031250000000000
          0.125000000000000       0.125000000000000      -0.125000000000000       0.031250000000000
          0.125000000000000       0.125000000000000       0.125000000000000       0.031250000000000
          0.375000000000000      -0.375000000000000      -0.375000000000000       0.062500000000000
          0.375000000000000      -0.375000000000000       0.125000000000000       0.062500000000000
          0.375000000000000       0.375000000000000      -0.375000000000000       0.031250000000000
          0.375000000000000       0.375000000000000       0.375000000000000       0.031250000000000
%ENDBLOCK optics_kpoint_list

%BLOCK elnes_kpoint_list
         -0.375000000000000      -0.375000000000000      -0.125000000000000       0.031250000000000
         -0.375000000000000      -0.375000000000000       0.125000000000000       0.031250000000000
         -0.125000000000000      -0.375000000000000      -0.375000000000000       0.062500000000000
         -0.125000000000000      -0.375000000000000      -0.125000000000000       0.062500000000000
         -0.125000000000000      -0.375000000000000       0.125000000000000       0.062500000000000
         -0.125000000000000      -0.375000000000000       0.375000000000000       0.062500000000000
         -0.125000000000000      -0.125000000000000      -0.375000000000000       0.031250000000000
         -0.125000000000000       0.375000000000000       0.375000000000000       0.062500000000000
          0.125000000000000      -0.375000000000000      -0.125000000000000       0.062500000000000
          0.125000000000000      -0.375000000000000       0.125000000000000       0.062500000000000
          0.125000000000000      -0.375000000000000       0.375000000000000       0.062500000000000
          0.125000000000000      -0.125000000000000      -0.375000000000000       0.062500000000000
          0.125000000000000      -0.125000000000000      -0.125000000000000       0.062500000000000
          0.125000000000000       0.125000000000000      -0.375000000000000       0.031250000000000
          0.125000000000000       0.125000000000000      -0.125000000000000       0.031250000000000
          0.125000000000000       0.125000000000000       0.125000000000000       0.031250000000000
          0.375000000000000      -0.375000000000000      -0.375000000000000       0.062500000000000
          0.375000000000000      -0.375000000000000       0.125000000000000       0.062500000000000
          0.375000000000000       0.375000000000000      -0.375000000000000       0.031250000000000
          0.375000000000000       0.375000000000000       0.375000000000000       0.031250000000000
%ENDBLOCK elnes_kpoint_list

%BLOCK magres_kpoint_list
         -0.375000000000000      -0.375000000000000      -0.125000000000000       0.031250000000000
         -0.375000000000000      -0.375000000000000       0.125000000000000       0.031250000000000
         -0.125000000000000      -0.375000000000000      -0.375000000000000       0.062500000000000
         -0.125000000000000      -0.375000000000000      -0.125000000000000       0.062500000000000
         -0.125000000000000      -0.375000000000000       0.125000000000000       0.062500000000000
         -0.125000000000000      -0.375000000000000       0.375000000000000       0.062500000000000
         -0.125000000000000      -0.125000000000000      -0.375000000000000       0.031250000000000
         -0.125000000000000       0.375000000000000       0.375000000000000       0.062500000000000
          0.125000000000000      -0.375000000000000      -0.125000000000000       0.062500000000000
          0.125000000000000      -0.375000000000000       0.125000000000000       0.062500000000000
          0.125000000000000      -0.375000000000000       0.375000000000000       0.062500000000000
          0.125000000000000      -0.125000000000000      -0.375000000000000       0.062500000000000
          0.125000000000000      -0.125000000000000      -0.125000000000000       0.062500000000000
          0.125000000000000       0.125000000000000      -0.375000000000000       0.031250000000000
          0.125000000000000       0.125000000000000      -0.125000000000000       0.031250000000000
          0.125000000000000       0.125000000000000       0.125000000000000       0.031250000000000
          0.375000000000000      -0.375000000000000      -0.375000000000000       0.062500000000000
          0.375000000000000      -0.375000000000000       0.125000000000000       0.062500000000000
          0.375000000000000       0.375000000000000      -0.375000000000000       0.031250000000000
          0.375000000000000       0.375000000000000       0.375000000000000       0.031250000000000
%ENDBLOCK magres_kpoint_list

%BLOCK supercell_kpoint_list
          0.000000000000000       0.000000000000000       0.000000000000000       1.000000000000000
%ENDBLOCK supercell_kpoint_list

%BLOCK phonon_kpoint_list
         -0.375000000000000      -0.375000000000000      -0.125000000000000       0.031250000000000
         -0.375000000000000      -0.375000000000000       0.125000000000000       0.031250000000000
         -0.125000000000000      -0.375000000000000      -0.375000000000000       0.062500000000000
         -0.125000000000000      -0.375000000000000      -0.125000000000000       0.062500000000000
         -0.125000000000000      -0.375000000000000       0.125000000000000       0.062500000000000
         -0.125000000000000      -0.375000000000000       0.375000000000000       0.062500000000000
         -0.125000000000000      -0.125000000000000      -0.375000000000000       0.031250000000000
         -0.125000000000000       0.375000000000000       0.375000000000000       0.062500000000000
          0.125000000000000      -0.375000000000000      -0.125000000000000       0.062500000000000
          0.125000000000000      -0.375000000000000       0.125000000000000       0.062500000000000
          0.125000000000000      -0.375000000000000       0.375000000000000       0.062500000000000
          0.125000000000000      -0.125000000000000      -0.375000000000000       0.062500000000000
          0.125000000000000      -0.125000000000000      -0.125000000000000       0.062500000000000
          0.125000000000000       0.125000000000000      -0.375000000000000       0.031250000000000
          0.125000000000000       0.125000000000000      -0.125000000000000       0.031250000000000
          0.125000000000000       0.125000000000000       0.125000000000000       0.031250000000000
          0.375000000000000      -0.375000000000000      -0.375000000000000       0.062500000000000
          0.375000000000000      -0.375000000000000       0.125000000000000       0.062500000000000
          0.375000000000000       0.375000000000000      -0.375000000000000       0.031250000000000
          0.375000000000000       0.375000000000000       0.375000000000000       0.031250000000000
%ENDBLOCK phonon_kpoint_list

%BLOCK phonon_fine_kpoint_list
         -0.375000000000000      -0.375000000000000      -0.125000000000000       0.031250000000000
         -0.375000000000000      -0.375000000000000       0.125000000000000       0.031250000000000
         -0.125000000000000      -0.375000000000000      -0.375000000000000       0.062500000000000
         -0.125000000000000      -0.375000000000000      -0.125000000000000       0.062500000000000
         -0.125000000000000      -0.375000000000000       0.125000000000000       0.062500000000000
         -0.125000000000000      -0.375000000000000       0.375000000000000       0.062500000000000
         -0.125000000000000      -0.125000000000000      -0.375000000000000       0.031250000000000
         -0.125000000000000       0.375000000000000       0.375000000000000       0.062500000000000
          0.125000000000000      -0.375000000000000      -0.125000000000000       0.062500000000000
          0.125000000000000      -0.375000000000000       0.125000000000000       0.062500000000000
          0.125000000000000      -0.375000000000000       0.375000000000000       0.062500000000000
          0.125000000000000      -0.125000000000000      -0.375000000000000       0.062500000000000
          0.125000000000000      -0.125000000000000      -0.125000000000000       0.062500000000000
          0.125000000000000       0.125000000000000      -0.375000000000000       0.031250000000000
          0.125000000000000       0.125000000000000      -0.125000000000000       0.031250000000000
          0.125000000000000       0.125000000000000       0.125000000000000       0.031250000000000
          0.375000000000000      -0.375000000000000      -0.375000000000000       0.062500000000000
          0.375000000000000      -0.375000000000000       0.125000000000000       0.062500000000000
          0.375000000000000       0.375000000000000      -0.375000000000000       0.031250000000000
          0.375000000000000       0.375000000000000       0.375000000000000       0.031250000000000
%ENDBLOCK phonon_fine_kpoint_list

%BLOCK external_pressure
   GPA
        10.00000000      0.00000000      0.00000000
        10.00000000      0.00000000
        10.00000000
%ENDBLOCK external_pressure

