%BLOCK LATTICE_CART
2.154433 0 0
0 2.154433 0
0 0 2.154433
%ENDBLOCK LATTICE_CART

%BLOCK POSITIONS_FRAC
%ENDBLOCK POSITIONS_FRAC

KPOINTS_MP_SPACING 0.1
 
%BLOCK SPECIES_POT
QC5
%ENDBLOCK SPECIES_POT
 
%BLOCK EXTERNAL_PRESSURE
0 0 0
0 0
0
%ENDBLOCK EXTERNAL_PRESSURE
